          0
          0
0000000000000001000100000        144
0000000000000001000100000        144
0000000000000001000100000        144
0000000000000001000100000        144
0000000000000001000100000        144
0000001000010000000000000        165
0000001000010000000000000        165
0000001000010000000000000        165
0000001000010000000000000        165
0000001000010000000000000        165
0000001000010000000000000        165
0000001000010000000000000        165
0000001000010000000000000        165
0000001000010000000000000        165
0000001000010000000000000        165
0000001000010000000000000        165
0000001000010000000000000        165
0000001000010000000000000        165
0000001000010000000000000        165
0000001000010000000000000        165
0000001000010000000000000        165
0000001000010000000000000        165
0000001000010000000000000        165
0000001000010000000000000        165
0000001000010000000000000        165
0000001000010000000000000        165
0000001000010000000000000        165
0000000000010000001100001        203
0000000000010000001100001        203
0000000000010000001100001        203
0000000000010000001100001        203
0000000000010000001100001        203
0000000000010000001100001        203
0000000000010000001100001        203
0000000000010000001100001        203
0000000000010000001100001        203
0000000000010000001100001        203
0000000000010000001100001        203
0000000000010000001100001        203
0000000000010000001100001        203
0000000000010000001100001        203
0000000000010000001100001        203
0000000000010000001100001        203
0000000000010000001100001        203
0000000000010000001100001        203
0000000000010000001100001        203
0000000000010000001100001        203
0000000000010000001100001        203
0000000000010000001100001        203
0000000000010000001100001        203
0000000000010000001100001        203
0000000000010000001100001        203
0000000000010000001100001        203
0000000000010000001100001        203
0000000000010000001100001        203
0000000000010000001100001        203
0000000000010000001100001        203
0000000000010000001100001        203
0000000000010000001100001        203
0000000000010000001100001        203
0000000000010000001100001        203
0000000000010000001100001        203
0000000000010000001100001        203
0000000000010000001100001        203
0000000000010000001100001        203
0000000000010000001100001        203
0000000000010000001100001        203
0000000000010000001100001        203
0000000000010000001100001        203
0000000000010000001100001        203
0000000000010000001100001        203
0000000000010000001100001        203
0000000000010000001100001        203
0000000000010000001100001        203
0000000000010000001100001        203
0000000000010000001100001        203
0000000000010000001100001        203
0000000000010000001100001        203
0000000000010000001100001        203
0000000000010000001100001        203
0000000000010000001100001        203
0000000000010000001100001        203
0000000000010000001100001        203
0000000000010000001100001        203
0000000000010000001100001        203
0000000000010000001100001        203
0000000000010000001100001        203
0000000000010000001100001        203
0000000000010000001100001        203
0000000000010000001100001        203
0000000000010000001100001        203
0000000000010000001100001        203
0000000000010000001100001        203
0000000000010000001100001        203
0000000000010000001100001        203
0000000000010000001100001        203
0000000000010000001100001        203
0000000000010000001100001        203
0000000000010000001100001        203
0000000000010000001100001        203
0000000000010000001100001        203
0000000000010000001100001        203
0000000000010000001100001        203
0000000000010000001100001        203
0000000000010000001100001        203
0000000000010000001100001        203
0000000000010000001100001        203
0000000000010000001100001        203
0000000000010000001100001        203
0000000000010000001100001        203
0000000000010000001100001        203
0000000000010000001100001        203
0000000000010000001100001        203
0000000000010000001100001        203
0000000000010000001100001        203
0000000000010000001100001        203
0000000000010000001100001        203
0000000000010000001100001        203
0000000000010000001100001        203
0000000000010000001100001        203
0000000000010000001100001        203
0000000000010000001100001        203
0000000000010000001100001        203
0000000000010000001100001        203
0000000000010000001100001        203
0000000000010000001100001        203
0000000000010000001100001        203
0000000000010000001100001        203
0000000000010000001100001        203
0000000000010000001100001        203
0000000000010000001100001        203
0000000000010000001100001        203
0000000000010000001100001        203
0000000000010000001100001        203
0000000000010000001100001        203
0000000000010000001100001        203
0000000000010000001100001        203
0000000000010000001100001        203
0000000000010000001100001        203
0000000000010000001100001        203
0000000000010000001100001        203
0000000000010000001100001        203
0000000000010000001100001        203
0000000000010000001100001        203
0000000000010000001100001        203
0000000000010000001100001        203
0000000000010000001100001        203
0000000000010000001100001        203
0000000000010000001100001        203
0000000000010000001100001        203
0000000000010000001100001        203
0000000000010000001100001        203
0000000000010000001100001        203
0000000000010000001100001        203
0000000000010000001100001        203
0000000000010000001100001        203
0000000000010000001100001        203
0000000000010000001100001        203
0000000000010000001100001        203
0000000000010000001100001        203
0000000000010000001100001        203
0000000000010000001100001        203
0000000000010000001100001        203
0000000000010000001100001        203
0000000000010000001100001        203
0000000000010000001100001        203
0000000000010000001100001        203
0000000000010000001100001        203
0000000000010000001100001        203
0000000000010000001100001        203
0000000000010000001100001        203
0000000000010000001100001        203
0000000000010000001100001        203
0000000000010000001100001        203
0000000000010000001100001        203
0000000000010000001100001        203
0000000000010000001100001        203
0000000000010000001100001        203
0000000000010000001100001        203
0000000000010000001100001        203
0000000000010000001100001        203
0000000000010000001100001        203
0000000000010000001100001        203
0000000000010000001100001        203
0000000000010000001100001        203
0000000000010000001100001        203
0000000000010000001100001        203
0000000000010000001100001        203
0000000000010000001100001        203
0000000000010000001100001        203
0000000000010000001100001        203
0000000000010000001100001        203
0000000000010000001100001        203
0000000000010000001100001        203
0000000000010000001100001        203
0000000000010000001100001        203
0000000000010000001100001        203
0000000000010000001100001        203
0000000000010000001100001        203
0000000000010000001100001        203
0000000000010000001100001        203
0000000000010000001100001        203
0000000000010000001100001        203
0000000000010000001100001        203
0000000000010000001100001        203
0000000000010000001100001        203
0000000000010000001100001        203
0000000000010000001100001        203
0000000000010000001100001        203
0000000000010000001100001        203
0000000000010000001100001        203
0000000000010000001100001        203
0000000000010000001100001        203
0000000000010000001100001        203
0000000000010000001100001        203
0000000000010000001100001        203
0000000000010000001100001        203
0000000000010000001100001        203
0000000000010000001100001        203
0000000000010000001100001        203
0000000000010000001100001        203
0000000000010000001100001        203
0000000000010000001100001        203
0000000000010000001100001        203
0000000000010000001100001        203
0000000000010000001100001        203
0000000000010000001100001        203
0000000000010000001100001        203
0000000000010000001100001        203
0000000000010000001100001        203
0000000000010000001100001        203
0000000000010000001100001        203
0000000000010000001100001        203
0000000000010000001100001        203
0000000000010000001100001        203
0000000000010000001100001        203
0000000000010000001100001        203
0000000000010000001100001        203
0000000000010000001100001        203
0000000000010000001100001        203
0000000000010000001100001        203
0000000000010000001100001        203
0000000000010000001100001        203
0000000000010000001100001        203
0000000000010000001100001        203
0000000000010000001100001        203
0000000000010000001100001        203
0000000000010000001100001        203
0000000000010000001100001        203
0000000000010000001100001        203
0000000000010000001100001        203
0000000000010000001100001        203
0000000000010000001100001        203
0000000000010000001100001        203
0000000000010000001100001        203
0000000000010000001100001        203
0000000000010000001100001        203
0000000000010000001100001        203
0000000000010000001100001        203
0000000000010000001100001        203
0000000000010000001100001        203
0000000000010000001100001        203
0000000000010000001100001        203
0000000000010000001100001        203
0000000000010000001100001        203
0000000000010000001100001        203
0000000000010000001100001        203
0000000000010000001100001        203
0000000000010000001100001        203
0000000000010000001100001        203
0000000000010000001100001        203
0000000000010000001100001        203
0000000000010000001100001        203
0000000000010000001100001        203
0000000000010000001100001        203
0000000000010000001100001        203
0000000000010000001100001        203
0000000000010000001100001        203
0000000000010000001100001        203
0000000000010000001100001        203
0000000000010000001100001        203
0000000000010000001100001        203
0000000000010000001100001        203
0000000000010000001100001        203
0000000000010000001100001        203
0000000000010000001100001        203
0000000000010000001100001        203
0000000000010000001100001        203
0000000000010000001100001        203
0000000000010000001100001        203
0000000000010000001100001        203
0000000000010000001100001        203
0000000000010000001100001        203
0000000000010000001100001        203
0000000000010000001100001        203
0000000000010000001100001        203
0000000000010000001100001        203
0000000000010000001100001        203
0000000000010000001100001        203
0000000000010000001100001        203
0000000000010000001100001        203
0000000000010000001100001        203
0000000000010000001100001        203
0000000000010000001100001        203
0000000000010000001100001        203
0000000000010000001100001        203
0000000000010000001100001        203
0000000000010000001100001        203
0000000000010000001100001        203
0000000000010000001100001        203
0000000000010000001100001        203
0000000000010000001100001        203
0000000000010000001100001        203
0000000000010000001100001        203
0000000000010000001100001        203
0000000000010000001100001        203
0000000000010000001100001        203
0000000000010000001100001        203
0000000000010000001100001        203
0000000000010000001100001        203
0000000000010000001100001        203
0000000000010000001100001        203
0000000000010000001100001        203
0000000000010000001100001        203
0000000000010000001100001        203
0000000000010000001100001        203
0000000000010000001100001        203
0000000000010000001100001        203
0000000000010000001100001        203
0000000000010000001100001        203
0000000000010000001100001        203
0000000000010000001100001        203
0000000000010000001100001        203
0000000000010000001100001        203
0000000000010000001100001        203
0000000000010000001100001        203
0000000000010000001100001        203
0000000000010000001100001        203
0000000000010000001100001        203
0000000000010000001100001        203
0000000000010000001100001        203
0000000000010000001100001        203
0000000000010000001100001        203
0000000000010000001100001        203
0000000000010000001100001        203
0000000000010000001100001        203
0000000000010000001100001        203
0000000000010000001100001        203
0000000000010000001100001        203
0000000000010000001100001        203
0000000000010000001100001        203
0000000000010000001100001        203
0000000000010000001100001        203
0000000000010000001100001        203
0000000000010000001100001        203
0000000000010000001100001        203
0000000000010000001100001        203
0000000000010000001100001        203
0000000000010000001100001        203
0000000000010000001100001        203
0000000000010000001100001        203
0000000000010000001100001        203
0000000000010000001100001        203
0000000000010000001100001        203
0000000000010000001100001        203
0000000000010000001100001        203
0000000000010000001100001        203
0000000000010000001100001        203
0000000000010000001100001        203
0000000000010000001100001        203
0000000000010000001100001        203
0000000000010000001100001        203
0000000000010000001100001        203
0000000000010000001100001        203
0000000000010000001100001        203
0000000000010000001100001        203
0000000000010000001100001        203
0000000000010000001100001        203
0000000000010000001100001        203
0000000000010000001100001        203
0000000000010000001100001        203
0000000000010000001100001        203
0000000000010000001100001        203
0000000000010000001100001        203
0000000000010000001100001        203
0000000000010000001100001        203
0000000000010000001100001        203
0000000000010000001100001        203
0000000000010000001100001        203
0000000000010000001100001        203
0000000000010000001100001        203
0000000000010000001100001        203
0000000000010000001100001        203
0000000000010000001100001        203
0000000000010000001100001        203
0000000000010000001100001        203
0000000000010000001100001        203
0000000000010000001100001        203
0000000000010000001100001        203
0000000000010000001100001        203
0000000000010000001100001        203
0000000000010000001100001        203
0000000000010000001100001        203
0000000000010000001100001        203
0000000000010000001100001        203
0000000000010000001100001        203
0000000000010000001100001        203
0000000000010000001100001        203
0000000000010000001100001        203
0000000000010000001100001        203
0000000000010000001100001        203
0000000000010000001100001        203
0000000000010000001100001        203
0000000000010000001100001        203
0000000000010000001100001        203
0000000000010000001100001        203
0000000000010000001100001        203
0000000000010000001100001        203
0000000000010000001100001        203
0000000000010000001100001        203
0000000000010000001100001        203
0000000000010000001100001        203
0000000000010000001100001        203
0000000000010000001100001        203
0000000000010000001100001        203
0000000000010000001100001        203
0000000000010000001100001        203
0000000000010000001100001        203
0000000000010000001100001        203
0000000000010000001100001        203
0000000000010000001100001        203
0000000000010000001100001        203
0000000000010000001100001        203
0000000000010000001100001        203
0000000000010000001100001        203
0000000000010000001100001        203
0000000000010000001100001        203
0000000000010000001100001        203
0000000000010000001100001        203
0000000000010000001100001        203
0000000000010000001100001        203
0000000000010000001100001        203
0000000000010000001100001        203
0000000000010000001100001        203
0000000000010000001100001        203
0000000000010000001100001        203
0000000000010000001100001        203
0000000000010000001100001        203
0000000000010000001100001        203
0000000000010000001100001        203
0000000000010000001100001        203
0000000000010000001100001        203
0000000000010000001100001        203
0000000000010000001100001        203
0000000000010000001100001        203
0000000000010000001100001        203
0000000000010000001100001        203
0000000000010000001100001        203
0000000000010000001100001        203
0000000000010000001100001        203
0000000000010000001100001        203
0000000000010000001100001        203
0000000000010000001100001        203
0000000000010000001100001        203
0000000000010000001100001        203
0000000000010000001100001        203
0000000000010000001100001        203
0000000000010000001100001        203
0000000000010000001100001        203
0000000000010000001100001        203
0000000000010000001100001        203
0000000000010000001100001        203
0000000000010000001100001        203
0000000000010000001100001        203
0000000000010000001100001        203
0000000000010000001100001        203
0000000000010000001100001        203
0000000000010000001100001        203
0000000000010000001100001        203
0000000000010000001100001        203
0000000000010000001100001        203
0000000000010000001100001        203
0000000000010000001100001        203
0000000000010000001100001        203
0000000000010000001100001        203
0000000000010000001100001        203
0000000000010000001100001        203
0000000000010000001100001        203
0000000000010000001100001        203
0000000000010000001100001        203
0000000000010000001100001        203
0000000000010000001100001        203
0000000000010000001100001        203
0000000000010000001100001        203
0000000000010000001100001        203
0000000000010000001100001        203
0000000000010000001100001        203
0000000000010000001100001        203
0000000000010000001100001        203
0000000000010000001100001        203
0000000000010000001100001        203
0000000000010000001100001        203
0000000000010000001100001        203
0000000000010000001100001        203
0000000000010000001100001        203
0000000000010000001100001        203
0000000000010000001100001        203
0000000000010000001100001        203
0000000000010000001100001        203
0000000000010000001100001        203
0000000000010000001100001        203
0000000000010000001100001        203
0000000000010000001100001        203
0000000000010000001100001        203
0000000000010000001100001        203
0000000000010000001100001        203
0000000000010000001100001        203
0000000000010000001100001        203
0000000000010000001100001        203
0000000000010000001100001        203
0000000000010000001100001        203
0000000000010000001100001        203
0000000000010000001100001        203
0000000000010000001100001        203
0000000000010000001100001        203
0000000000010000001100001        203
0000000000010000001100001        203
0000000000010000001100001        203
0000000000010000001100001        203
0000000000010000001100001        203
0000000000010000001100001        203
0000000000010000001100001        203
0000000000010000001100001        203
0000000000010000001100001        203
0000000000010000001100001        203
0000000000010000001100001        203
0000000000010000001100001        203
0000000000010000001100001        203
0000000000010000001100001        203
0000000000010000001100001        203
0000000000010000001100001        203
0000000000010000001100001        203
0000000000010000001100001        203
0000000000010000001100001        203
0000000000010000001100001        203
0000000000010000001100001        203
0000000000010000001100001        203
0000000000010000001100001        203
0000000000010000001100001        203
0000000000010000001100001        203
0000000000010000001100001        203
0000000000010000001100001        203
0000000000010000001100001        203
0000000000010000001100001        203
0000000000010000001100001        203
0000000000010000001100001        203
0000000000010000001100001        203
0000000000010000001100001        203
0000000000010000001100001        203
0000000000010000001100001        203
0000000000010000001100001        203
0000000000010000001100001        203
0000000000010000001100001        203
0000000000010000001100001        203
0000000000010000001100001        203
0000000000010000001100001        203
0000000000010000001100001        203
0000000000010000001100001        203
0000000000010000001100001        203
0000000000010000001100001        203
0000000000010000001100001        203
0000000000010000001100001        203
0000000000010000001100001        203
0000000000010000001100001        203
0000000000010000001100001        203
0000000000010000001100001        203
0000000000010000001100001        203
0000000000010000001100001        203
0000000000010000001100001        203
0000000000010000001100001        203
0000000000010000001100001        203
0000000000010000001100001        203
0000000000010000001100001        203
0000000000010000001100001        203
0000000000010000001100001        203
0000000000010000001100001        203
0000000000010000001100001        203
0000000000010000001100001        203
0000000000010000001100001        203
0000000000010000001100001        203
0000000000010000001100001        203
0000000000010000001100001        203
0000000000010000001100001        203
0000000000010000001100001        203
0000000000010000001100001        203
0000000000010000001100001        203
0000000000010000001100001        203
0000000000010000001100001        203
0000000000010000001100001        203
0000000000010000001100001        203
0000000000010000001100001        203
0000000000010000001100001        203
0000000000010000001100001        203
0000000000010000001100001        203
0000000000010000001100001        203
0000000000010000001100001        203
0000000000010000001100001        203
0000000000010000001100001        203
0000000000010000001100001        203
0000000000010000001100001        203
0000000000010000001100001        203
0000000000010000001100001        203
0000000000010000001100001        203
0000000000010000001100001        203
0000000000010000001100001        203
0000000000010000001100001        203
0000000000010000001100001        203
0000000000010000001100001        203
0000000000010000001100001        203
0000000000010000001100001        203
0000000000010000001100001        203
0000000000010000001100001        203
0000000000010000001100001        203
0000000000010000001100001        203
0000000000010000001100001        203
0000000000010000001100001        203
0000000000010000001100001        203
0000000000010000001100001        203
0000000000010000001100001        203
0000000000010000001100001        203
0000000000010000001100001        203
0000000000010000001100001        203
0000000000010000001100001        203
0000000000010000001100001        203
0000000000010000001100001        203
0000000000010000001100001        203
0000000000010000001100001        203
0000000000010000001100001        203
0000000000010000001100001        203
0000000000010000001100001        203
0000000000010000001100001        203
0000000000010000001100001        203
0000000000010000001100001        203
0000000000010000001100001        203
0000000000010000001100001        203
0000000000010000001100001        203
0000000000010000001100001        203
0000000000010000001100001        203
0000000000010000001100001        203
0000000000010000001100001        203
0000000000010000001100001        203
0000000000010000001100001        203
0000000000010000001100001        203
0000000000010000001100001        203
0000000000010000001100001        203
0000000000010000001100001        203
0000000000010000001100001        203
0000000000010000001100001        203
0000000000010000001100001        203
0000000000010000001100001        203
0000000000010000001100001        203
0000000000010000001100001        203
0000000000010000001100001        203
0000000000010000001100001        203
0000000000010000001100001        203
0000000000010000001100001        203
0000000000010000001100001        203
0000000000010000001100001        203
0000000000010000001100001        203
0000000000010000001100001        203
0000000000010000001100001        203
0000000000010000001100001        203
0000000000010000001100001        203
0000000000010000001100001        203
0000000000010000001100001        203
0000000000010000001100001        203
0000000000010000001100001        203
0000000000010000001100001        203
0000000000010000001100001        203
0000000000010000001100001        203
0000000000010000001100001        203
0000000000010000001100001        203
0000000000010000001100001        203
0000000000010000001100001        203
0000000000010000001100001        203
0000000000010000001100001        203
0000000000010000001100001        203
0000000000010000001100001        203
0000000000010000001100001        203
0000000000010000001100001        203
0000000000010000001100001        203
0000000000010000001100001        203
0000000000010000001100001        203
0000000000010000001100001        203
0000000000010000001100001        203
0000000000010000001100001        203
0000000000010000001100001        203
0000000000010000001100001        203
0000000000010000001100001        203
0000000000010000001100001        203
0000000000010000001100001        203
0000000000010000001100001        203
0000000000010000001100001        203
0000000000010000001100001        203
0000000000010000001100001        203
0000000000010000001100001        203
0000000000010000001100001        203
0000000000010000001100001        203
0000000000010000001100001        203
0000000000010000001100001        203
0000000000010000001100001        203
0000000000010000001100001        203
0000000000010000001100001        203
0000000000010000001100001        203
0000000000010000001100001        203
0000000000010000001100001        203
0000000000010000001100001        203
0000000000010000001100001        203
0000000000010000001100001        203
0000000000010000001100001        203
0000000000010000001100001        203
0000000000010000001100001        203
0000000000010000001100001        203
0000000000010000001100001        203
0000000000010000001100001        203
0000000000010000001100001        203
0000000000010000001100001        203
0000000000010000001100001        203
0000000000010000001100001        203
0000000000010000001100001        203
0000000000010000001100001        203
0000000000010000001100001        203
0000000000010000001100001        203
0000000000010000001100001        203
0000000000010000001100001        203
0000000000010000001100001        203
0000000000010000001100001        203
0000000000010000001100001        203
0000000000010000001100001        203
0000000000010000001100001        203
0000000000010000001100001        203
0000000000010000001100001        203
0000000000010000001100001        203
0000000000010000001100001        203
0000000000010000001100001        203
0000000000010000001100001        203
0000000000010000001100001        203
0000000000010000001100001        203
0000000000010000001100001        203
0000000000010000001100001        203
0000000000010000001100001        203
0000000000010000001100001        203
0000000000010000001100001        203
0000000000010000001100001        203
0000000000010000001100001        203
0000000000010000001100001        203
0000000000010000001100001        203
0000000000010000001100001        203
0000000000010000001100001        203
0000000000010000001100001        203
0000000000010000001100001        203
0000000000010000001100001        203
0000000000010000001100001        203
0000000000010000001100001        203
0000000000010000001100001        203
0000000000010000001100001        203
0000000000010000001100001        203
0000000000010000001100001        203
0000000000010000001100001        203
0000000000010000001100001        203
0000000000010000001100001        203
0000000000010000001100001        203
0000000000010000001100001        203
0000000000010000001100001        203
0000000000010000001100001        203
0000000000010000001100001        203
0000000000010000001100001        203
0000000000010000001100001        203
0000000000010000001100001        203
0000000000010000001100001        203
0000000000010000001100001        203
0000000000010000001100001        203
0000000000010000001100001        203
0000000000010000001100001        203
0000000000010000001100001        203
0000000000010000001100001        203
0000000000010000001100001        203
0000000000010000001100001        203
0000000000010000001100001        203
0000000000010000001100001        203
0000000000010000001100001        203
0000000000010000001100001        203
0000000000010000001100001        203
0000000000010000001100001        203
0000000000010000001100001        203
0000000000010000001100001        203
0000000000010000001100001        203
0000000000010000001100001        203
0000000000010000001100001        203
0000000000010000001100001        203
0000000000010000001100001        203
0000000000010000001100001        203
0000000000010000001100001        203
0000000000010000001100001        203
0000000000010000001100001        203
0000000000010000001100001        203
0000000000010000001100001        203
0000000000010000001100001        203
0000000000010000001100001        203
0000000000010000001100001        203
0000000000010000001100001        203
0000000000010000001100001        203
0000000000010000001100001        203
0000000000010000001100001        203
0000000000010000001100001        203
0000000000010000001100001        203
0000000000010000001100001        203
0000000000010000001100001        203
0000000000010000001100001        203
0000000000010000001100001        203
0000000000010000001100001        203
0000000000010000001100001        203
0000000000010000001100001        203
0000000000010000001100001        203
0000000000010000001100001        203
0000000000010000001100001        203
0000000000010000001100001        203
0000000000010000001100001        203
0000000000010000001100001        203
0000000000010000001100001        203
0000000000010000001100001        203
0000000000010000001100001        203
0000000000010000001100001        203
0000000000010000001100001        203
0000000000010000001100001        203
0000000000010000001100001        203
0000000000010000001100001        203
0000000000010000001100001        203
0000000000010000001100001        203
0000000000010000001100001        203
0000000000010000001100001        203
0000000000010000001100001        203
0000000000010000001100001        203
0000000000010000001100001        203
0000000000010000001100001        203
0000000000010000001100001        203
0000000000010000001100001        203
0000000000010000001100001        203
0000000000010000001100001        203
0000000000010000001100001        203
0000000000010000001100001        203
0000000000010000001100001        203
0000000000010000001100001        203
0000000000010000001100001        203
0000000000010000001100001        203
0000000000010000001100001        203
0000000000010000001100001        203
0000000000010000001100001        203
0000000000010000001100001        203
0000000000010000001100001        203
0000000000010000001100001        203
0000000000010000001100001        203
0000000000010000001100001        203
0000000000010000001100001        203
0000000000010000001100001        203
0000000000010000001100001        203
0000000000010000001100001        203
0000000000010000001100001        203
0000000000010000001100001        203
0000000000010000001100001        203
0000000000010000001100001        203
0000000000010000001100001        203
0000000000010000001100001        203
0000000000010000001100001        203
0000000000010000001100001        203
0000000000010000001100001        203
0000000000010000001100001        203
0000000000010000001100001        203
0000000000010000001100001        203
0000000000010000001100001        203
0000000000010000001100001        203
0000000000010000001100001        203
0000000000010000001100001        203
0000000000010000001100001        203
0000000000010000001100001        203
0000000000010000001100001        203
0000000000010000001100001        203
0000000000010000001100001        203
0000000000010000001100001        203
0000000000010000001100001        203
0000000000010000001100001        203
0000000000010000001100001        203
0000000000010000001100001        203
0000000000010000001100001        203
0000000000010000001100001        203
0000000000010000001100001        203
0000000000010000001100001        203
0000000000010000001100001        203
0000000000010000001100001        203
0000000000010000001100001        203
0000000000010000001100001        203
0000000000010000001100001        203
0000000000010000001100001        203
0000000000010000001100001        203
0000000000010000001100001        203
0000000000010000001100001        203
0000000000010000001100001        203
0000000000010000001100001        203
0000000000010000001100001        203
0000000000010000001100001        203
0000000000010000001100001        203
0000000000010000001100001        203
0000000000010000001100001        203
0000000000010000001100001        203
0000000000010000001100001        203
0000000000010000001100001        203
0000000000010000001100001        203
0000000000010000001100001        203
0000000000010000001100001        203
0000000000010000001100001        203
0000000000010000001100001        203
0000000000010000001100001        203
0000000000010000001100001        203
0000000000010000001100001        203
0000000000010000001100001        203
0000000000010000001100001        203
0000000000010000001100001        203
0000000000010000001100001        203
0000000000010000001100001        203
0000000000010000001100001        203
0000000000010000001100001        203
0000000000010000001100001        203
0000000000010000001100001        203
0000000000010000001100001        203
0000000000010000001100001        203
0000000000010000001100001        203
0000000000010000001100001        203
0000000000010000001100001        203
0000000000010000001100001        203
0000000000010000001100001        203
0000000000010000001100001        203
0000000000010000001100001        203
0000000000010000001100001        203
0000000000010000001100001        203
0000000000010000001100001        203
0000000000010000001100001        203
0000000000010000001100001        203
0000000000010000001100001        203
0000000000010000001100001        203
0000000000010000001100001        203
0000000000010000001100001        203
0000000000010000001100001        203
0000000000010000001100001        203
0000000000010000001100001        203
0000000000010000001100001        203
0000000000010000001100001        203
0000000000010000001100001        203
0000000000010000001100001        203
0000000000010000001100001        203
0000000000010000001100001        203
0000000000010000001100001        203
0000000000010000001100001        203
0000000000010000001100001        203
0000000000010000001100001        203
0000000000010000001100001        203
0000000000010000001100001        203
0000000000010000001100001        203
0000000000010000001100001        203
0000000000010000001100001        203
0000000000010000001100001        203
0000000000010000001100001        203
0000000000010000001100001        203
0000000000010000001100001        203
0000000000010000001100001        203
0000000000010000001100001        203
0000000000010000001100001        203
0000000000010000001100001        203
0000000000010000001100001        203
0000000000010000001100001        203
0000000000010000001100001        203
0000000000010000001100001        203
0000000000010000001100001        203
0000000000010000001100001        203
0000000000010000001100001        203
0000000000010000001100001        203
0000000000010000001100001        203
0000000000010000001100001        203
0000000000010000001100001        203
0000000000010000001100001        203
0000000000010000001100001        203
0000000000010000001100001        203
0000000000010000001100001        203
0000000000010000001100001        203
0000000000010000001100001        203
0000000000010000001100001        203
0000000000010000001100001        203
0000000000010000001100001        203
0000000000010000001100001        203
